8
Lattice="5.0 0.0 0.0 0.0 5.0 0.0 0.0 0.0 5.0" Properties=species:S:1:pos:R:3 S128=T pbc="T T T"
S       -0.20786625       1.00303675       2.20112100
S        0.20786575      -1.00303725       2.20112100
S        0.91613575      -0.42377625      -2.20096600
S       -0.91613525       0.42377675      -2.20096600
S        0.94857175      -1.99867825      -0.89173800
S       -0.94857125       1.99867775      -0.89173800
S       -1.74295125       1.37153875       0.89158300
S        1.74295075      -1.37153825       0.89158300
